(set-logic ALL)
(set-option :produce-models true)
(declare-sort BoundSet 0)
(declare-sort UnboundSet 0)
(set-option :finite-model-find true)
(declare-fun IsOnArm (BoundSet) Bool)
(declare-fun IsMan (BoundSet) Bool)
(assert (not (=> (exists ((c BoundSet)) (IsOnArm c)) (exists ((a BoundSet)) (exists ((d BoundSet)) (and (IsMan a) (IsOnArm d)))))))
(check-sat)
(get-model)